&CONTROL
    calculation = "relax"
    max_seconds =  86400.0
    pseudo_dir  = "./"
    verbosity   = "low"
/

&SYSTEM
    a                         =  13.1337185
    b                         =  13.6537423
    c                         =  28.7501618
    cosab                     = -0.61543451
    degauss                   =  0.01
    ecutrho                   =  225.0
    ecutwfc                   =  25.0
    ibrav                     =  12
    nat                       =  130
    nspin                     =  2
    ntyp                      =  3
    occupations               = "smearing"
    smearing                  = "gaussian"
    starting_magnetization(1) =  0.0
    starting_magnetization(2) =  0.2
/

&ELECTRONS
    conv_thr         =  1.0e-6
    diagonalization  = "david"
    electron_maxstep =  200
    mixing_beta      =  9.13978495e-02
    startingpot      = "atomic"
    startingwfc      = "atomic+random"
/

&INPUTPP
    plot_num       =  0
    spin_component =  0
/

&PLOT
    iflag         =  3
    output_format =  6
/

K_POINTS {automatic}
 2  2  1  0 0 0

ATOMIC_SPECIES
O      15.99940  O.pbe-rrkjus.UPF
Cu     63.54600  Cu.pbe-n-van_ak.UPF
N      14.00674  N.pbe-rrkjus.UPF

ATOMIC_POSITIONS {angstrom}
O       8.488146   3.445162  18.649264
O      -3.463708   6.136130  18.648673
Cu     -0.831224   1.579848  18.136515
Cu      2.365809   1.629422  18.211606
Cu     -3.020307   4.320289  18.211442
Cu      0.348740   4.271692  18.136159
O      10.644742   2.460222  17.705791
O      -1.308915   5.151913  17.705372
O      -0.607004   1.493932  16.078193
O       0.576260   4.183339  16.078172
Cu     10.874336   2.366180  15.688804
Cu      1.020017   2.374741  15.562610
Cu      8.769216   5.065226  15.563101
Cu     -1.076616   5.056705  15.688955
O       9.253722   3.239084  15.060100
O      -2.698553   5.929774  15.060052
O      11.148684   2.233471  13.714344  0 0 0
O      -0.802349   4.923902  13.714347  0 0 0
Cu      9.501732   3.112811  13.116173  0 0 0
Cu     -0.348590   3.112779  13.116139  0 0 0
Cu      7.400980   5.803313  13.116118  0 0 0
Cu     -2.449342   5.803283  13.116082  0 0 0
O       0.105197   1.301765  12.517910  0 0 0
O       1.287879   3.992191  12.517907  0 0 0
O       9.820184   2.963114  11.196440  0 0 0
O      -2.130853   5.653540  11.196437  0 0 0
Cu      0.423688   1.152022  10.598266  0 0 0
Cu      3.707084   1.151991  10.598232  0 0 0
Cu     -1.677065   3.842524  10.598210  0 0 0
Cu      1.606332   3.842494  10.598174  0 0 0
O      -1.223306   2.031403  10.000000  0 0 0
O      -0.040621   4.721834  10.000003  0 0 0
O       4.288105   8.825355  18.650276
O       0.741232   0.753709  18.651988
Cu     -5.037040   6.959688  18.134507
Cu     -1.837712   7.010869  18.210794
Cu     -7.219954   9.701063  18.211037
Cu     -3.851429   9.648730  18.134926
O       6.440575   7.842796  17.704137
O      -5.507209  10.531769  17.704713
O      -4.809044   6.873795  16.079597
O      -3.624779   9.562637  16.078317
Cu      6.672860   7.748212  15.688109
Cu     -3.181938   7.754992  15.562576
Cu      4.568128  10.446891  15.562394
Cu     -5.276668  10.436821  15.688637
O       5.051902   8.621093  15.059590
O       1.505600   0.549012  15.060406
O       6.947192   7.614329  13.714344  0 0 0
O      -5.003841  10.304760  13.714347  0 0 0
Cu      5.300240   8.493669  13.116173  0 0 0
Cu     -4.550082   8.493637  13.116139  0 0 0
Cu     11.602472   0.422455  13.116118  0 0 0
Cu      1.752151   0.422425  13.116082  0 0 0
O      -4.096295   6.682623  12.517910  0 0 0
O      -2.913613   9.373049  12.517907  0 0 0
O       5.618692   8.343972  11.196440  0 0 0
O       2.070639   0.272682  11.196437  0 0 0
Cu     -3.777805   6.532880  10.598266  0 0 0
Cu     -0.494408   6.532849  10.598232  0 0 0
Cu     -5.878557   9.223383  10.598210  0 0 0
Cu     -2.595160   9.223352  10.598174  0 0 0
O      -5.424798   7.412261  10.000000  0 0 0
O      -4.242113  10.102692  10.000003  0 0 0
O       1.921400   3.445192  18.649487
O       3.103281   6.136059  18.648728
Cu      5.735715   1.579765  18.136165
Cu      8.932543   1.629458  18.211382
Cu      3.546726   4.320182  18.211621
Cu      6.915641   4.271570  18.135825
O       4.077990   2.460119  17.705657
O       5.258099   5.151818  17.705240
O       5.959994   1.493908  16.078170
O       7.143215   4.183283  16.078215
Cu      4.307596   2.366171  15.688707
Cu      7.587053   2.374684  15.562652
Cu      2.202260   5.065283  15.563056
Cu      5.490427   5.056783  15.688855
O       2.686888   3.239023  15.060173
O       3.868421   5.929788  15.060129
O       4.581825   2.233471  13.714344  0 0 0
O       5.764510   4.923902  13.714347  0 0 0
Cu      2.934873   3.112811  13.116173  0 0 0
Cu      6.218269   3.112779  13.116139  0 0 0
Cu      0.834121   5.803313  13.116118  0 0 0
Cu      4.117518   5.803283  13.116082  0 0 0
O       6.672057   1.301765  12.517910  0 0 0
O       7.854738   3.992191  12.517907  0 0 0
O       3.253325   2.963114  11.196440  0 0 0
O       4.436007   5.653540  11.196437  0 0 0
Cu      6.990547   1.152022  10.598266  0 0 0
Cu     10.273943   1.151991  10.598232  0 0 0
Cu      4.889795   3.842524  10.598210  0 0 0
Cu      8.173192   3.842494  10.598174  0 0 0
O       5.343553   2.031403  10.000000  0 0 0
O       6.526238   4.721834  10.000003  0 0 0
O      -2.278829   8.825453  18.650295
O       7.308038   0.753726  18.651879
Cu      1.529763   6.959654  18.134744
Cu      4.729340   7.010738  18.210976
Cu     -0.653230   9.701126  18.210838
Cu      2.715335   9.648669  18.135197
O      -0.126388   7.842840  17.704216
O       1.059594  10.531819  17.704783
O       1.757818   6.873912  16.079521
O       2.942068   9.562699  16.078300
Cu      0.105936   7.748267  15.688165
Cu      3.384926   7.755057  15.562598
Cu     -1.998638  10.446825  15.562390
Cu      1.290203  10.436933  15.688684
O      -1.515060   8.621069  15.059528
O       8.072476   0.549047  15.060364
O       0.380333   7.614329  13.714344  0 0 0
O       1.563018  10.304760  13.714347  0 0 0
Cu     -1.266619   8.493669  13.116173  0 0 0
Cu      2.016777   8.493637  13.116139  0 0 0
Cu      5.035613   0.422455  13.116118  0 0 0
Cu      8.319010   0.422425  13.116082  0 0 0
O       2.470564   6.682623  12.517910  0 0 0
O       3.653246   9.373049  12.517907  0 0 0
O      -0.948167   8.343972  11.196440  0 0 0
O       8.637499   0.272682  11.196437  0 0 0
Cu      2.789055   6.532880  10.598266  0 0 0
Cu      6.072451   6.532849  10.598232  0 0 0
Cu      0.688302   9.223383  10.598210  0 0 0
Cu      3.971700   9.223352  10.598174  0 0 0
O       1.142061   7.412261  10.000000  0 0 0
O       2.324746  10.102692  10.000003  0 0 0
N       1.760199   8.310902  19.586323
O       0.815858   8.644224  20.246983

