BEGIN
BEGIN_PATH_INPUT
&PATH
    ci_scheme      = "auto"
    ds             =  1.0
    first_last_opt = .TRUE.
    k_max          =  0.3
    k_min          =  0.1
    nstep_path     =  250
    num_of_images  =  4
    opt_scheme     = "quick-min"
    path_thr       =  0.1
    restart_mode   = "from_scratch"
    string_method  = "neb"
    use_freezing   = .FALSE.
/
END_PATH_INPUT

BEGIN_ENGINE_INPUT
&CONTROL
    pseudo_dir = "./"
    verbosity  = "low"
/

&SYSTEM
    a                         =  10.7138276
    b                         =  10.8671895
    c                         =  21.0248994
    degauss                   =  0.01
    dftd3_threebody           = .TRUE.
    dftd3_version             =  4
    ecutrho                   =  225.0
    ecutwfc                   =  25.0
    ibrav                     =  8
    nat                       =  85
    nspin                     =  2
    ntyp                      =  5
    occupations               = "smearing"
    smearing                  = "gaussian"
    starting_magnetization(1) =  0.0
    starting_magnetization(2) =  0.2
    starting_magnetization(3) =  0.2
    vdw_corr                  = "dft-d3"
/

&ELECTRONS
    conv_thr         =  1.0e-6
    diagonalization  = "david"
    electron_maxstep =  200
    mixing_beta      =  0.1
    startingpot      = "atomic"
    startingwfc      = "atomic+random"
/

K_POINTS {automatic}
 2  2  1  0 0 0

ATOMIC_SPECIES
O      15.99940  O.pbe-rrkjus.UPF
Co     58.93320  Co.pbe-nd-rrkjus.UPF
La    138.90550  La.pbe-nsp-van.UPF
H       1.00794  H.pbe-rrkjus.UPF
C      12.01070  C.pbe-rrkjus.UPF

BEGIN_POSITIONS
FIRST_IMAGE
ATOMIC_POSITIONS {angstrom}
O       2.357499   4.043062  13.313419
O      10.390958   4.111143  13.316244
Co      9.066818   2.748623  13.262377
Co      1.027468   5.396496  13.273702
O       2.379189   1.347934  13.067264
O      10.417112   1.371655  13.069956
La      1.018570   2.726516  11.538145
O       9.173636   3.048234  11.285256
O       1.135295   5.103982  11.286293
La      9.048081   5.428821  11.542374
O      10.308426   1.205670   9.666080  0 0 0
O       7.629969   1.511127   9.666080  0 0 0
Co      6.445656   0.000000   9.451652  0 0 0
Co      9.124112   2.716797   9.451652  0 0 0
O      10.618256   3.922467   9.237223  0 0 0
O       7.939799   4.227925   9.237223  0 0 0
O       6.484270   0.305457   7.544484  0 0 0
O       9.162727   2.411340   7.544484  0 0 0
La      6.484270   2.716797   7.544484  0 0 0
La      9.162727   5.433595   7.544484  0 0 0
O       2.355188   9.478556  13.318751
O      10.391373   9.545355  13.312537
Co      9.060999   8.188459  13.267665
Co      1.028363  10.833601  13.272140
O       2.376022   6.781886  13.072228
O      10.411531   6.806202  13.072254
La      1.016177   8.155234  11.540602
O       9.170838   8.481296  11.286287
O       1.135390  10.533097  11.284851
La      9.052153  10.859098  11.537712
O      10.308426   6.639265   9.666080  0 0 0
O       7.629969   6.944722   9.666080  0 0 0
Co      6.445656   5.433595   9.451652  0 0 0
Co      9.124112   8.150392   9.451652  0 0 0
O      10.618256   9.356062   9.237223  0 0 0
O       7.939799   9.661519   9.237223  0 0 0
O       6.484270   5.739052   7.544484  0 0 0
O       9.162727   7.844935   7.544484  0 0 0
La      6.484270   8.150392   7.544484  0 0 0
La      9.162727   0.000000   7.544484  0 0 0
O       7.716177   4.035675  13.301002
O       5.033933   4.105688  13.301129
Co      3.707019   2.751339  13.268488
Co      6.384667   5.402533  13.301616
O       7.737189   1.343744  13.067156
O       5.058179   1.370574  13.063833
La      6.374825   2.732617  11.544972
O       3.810383   3.049295  11.284392
O       6.486341   5.117708  11.291753
La      3.698399   5.429857  11.544196
O       4.951512   1.205670   9.666080  0 0 0
O       2.273055   1.511127   9.666080  0 0 0
Co      1.088742   0.000000   9.451652  0 0 0
Co      3.767199   2.716797   9.451652  0 0 0
O       5.261342   3.922467   9.237223  0 0 0
O       2.582885   4.227925   9.237223  0 0 0
O       1.127357   0.305457   7.544484  0 0 0
O       3.805814   2.411340   7.544484  0 0 0
La      1.127357   2.716797   7.544484  0 0 0
La      3.805814   5.433595   7.544484  0 0 0
O       7.713519   9.472889  13.316804
O       5.035673   9.544161  13.318061
Co      3.705804   8.191574  13.269649
Co      6.385810  10.830691  13.269720
O       7.736556   6.782635  13.064588
O       5.050565   6.808484  13.072660
La      6.371148   8.150001  11.538876
O       3.811617   8.482887  11.287312
O       6.493497  10.529326  11.285062
La      3.696043  10.860820  11.537988
O       4.951512   6.639265   9.666080  0 0 0
O       2.273055   6.944722   9.666080  0 0 0
Co      1.088742   5.433595   9.451652  0 0 0
Co      3.767199   8.150392   9.451652  0 0 0
O       5.261342   9.356062   9.237223  0 0 0
O       2.582885   9.661519   9.237223  0 0 0
O       1.127357   5.739052   7.544484  0 0 0
O       3.805814   7.844935   7.544484  0 0 0
La      1.127357   8.150392   7.544484  0 0 0
La      3.805814   0.000000   7.544484  0 0 0
H       5.774176   5.078947  16.940523
H       7.075637   4.995511  15.718993
H       5.807137   6.284578  15.623189
H       7.060679   6.342691  16.890882
C       6.429188   5.673918  16.293186
INTERMEDIATE_IMAGE
ATOMIC_POSITIONS {angstrom}
O       2.331404   4.008889  13.328204
O      10.372016   4.095677  13.364510
Co      9.079411   2.744331  13.268867
Co      1.030386   5.383133  13.278908
O       2.377984   1.314534  13.080177
O      10.426175   1.356705  13.030789
La      1.015647   2.715660  11.522999
O       9.181384   3.039941  11.287652
O       1.089834   5.089236  11.291417
La      9.062452   5.423596  11.539580
O      10.308426   1.205670   9.666080
O       7.629969   1.511127   9.666080
Co      6.445656   0.000000   9.451652
Co      9.124112   2.716797   9.451652
O      10.618256   3.922467   9.237223
O       7.939799   4.227925   9.237223
O       6.484270   0.305457   7.544484
O       9.162727   2.411340   7.544484
La      6.484270   2.716797   7.544484
La      9.162727   5.433595   7.544484
O       2.368794   9.448070  13.324162
O      10.413311   9.537435  13.341862
Co      9.075629   8.196436  13.258118
Co      1.031605  10.823278  13.262857
O       2.387890   6.750098  13.044004
O      10.422392   6.796241  13.084369
La      1.024552   8.142233  11.539892
O       9.205713   8.495506  11.286561
O       1.149461  10.518913  11.284609
La      9.049987  10.869563  11.536667
O      10.308426   6.639265   9.666080
O       7.629969   6.944722   9.666080
Co      6.445656   5.433595   9.451652
Co      9.124112   8.150392   9.451652
O      10.618256   9.356062   9.237223
O       7.939799   9.661519   9.237223
O       6.484270   5.739052   7.544484
O       9.162727   7.844935   7.544484
La      6.484270   8.150392   7.544484
La      9.162727   0.000000   7.544484
O       7.709248   4.057291  13.213182
O       5.005968   4.112629  13.235283
Co      3.685752   2.734343  13.264389
Co      6.390894   5.425825  13.274818
O       7.743763   1.364582  13.110851
O       5.055852   1.382917  13.060082
La      6.368772   2.748526  11.547869
O       3.795267   3.041595  11.281656
O       6.428966   5.144350  11.285146
La      3.716108   5.421991  11.534671
O       4.951512   1.205670   9.666080
O       2.273055   1.511127   9.666080
Co      1.088742   0.000000   9.451652
Co      3.767199   2.716797   9.451652
O       5.261342   3.922467   9.237223
O       2.582885   4.227925   9.237223
O       1.127357   0.305457   7.544484
O       3.805814   2.411340   7.544484
La      1.127357   2.716797   7.544484
La      3.805814   5.433595   7.544484
O       7.733809   9.489650  13.315059
O       5.050427   9.561509  13.308272
Co      3.710847   8.180625  13.267387
Co      6.392507  10.843765  13.277306
O       7.753576   6.807347  13.018784
O       5.060167   6.832770  13.096236
La      6.375298   8.166071  11.535634
O       3.827189   8.481342  11.289446
O       6.512244  10.549705  11.290532
La      3.703783  10.855027  11.536644
O       4.951512   6.639265   9.666080
O       2.273055   6.944722   9.666080
Co      1.088742   5.433595   9.451652
Co      3.767199   8.150392   9.451652
O       5.261342   9.356062   9.237223
O       2.582885   9.661519   9.237223
O       1.127357   5.739052   7.544484
O       3.805814   7.844935   7.544484
La      1.127357   8.150392   7.544484
La      3.805814   0.000000   7.544484
H       5.426480   4.695191  16.027612
H       6.987934   4.679310  15.379755
H       5.885707   6.128668  15.412728
H       6.670713   5.611999  16.778885
C       6.238889   5.272683  15.910708
INTERMEDIATE_IMAGE
ATOMIC_POSITIONS {angstrom}
O       2.304944   3.963117  13.336652
O      10.350410   4.088754  13.386500
Co      9.070723   2.748100  13.274432
Co      1.028782   5.365747  13.281196
O       2.364190   1.272314  13.052956
O      10.421388   1.347421  13.003131
La      0.990554   2.706245  11.500493
O       9.175814   3.040544  11.289010
O       1.072747   5.078808  11.293101
La      9.076062   5.423430  11.530818
O      10.308426   1.205670   9.666080
O       7.629969   1.511127   9.666080
Co      6.445656   0.000000   9.451652
Co      9.124112   2.716797   9.451652
O      10.618256   3.922467   9.237223
O       7.939799   4.227925   9.237223
O       6.484270   0.305457   7.544484
O       9.162727   2.411340   7.544484
La      6.484270   2.716797   7.544484
La      9.162727   5.433595   7.544484
O       2.373362   9.418941  13.320405
O      10.421274   9.531418  13.378868
Co      9.083920   8.202269  13.265018
Co      1.023758  10.808014  13.254509
O       2.401528   6.715552  13.033282
O      10.434168   6.785430  13.088452
La      1.026434   8.126274  11.540643
O       9.223056   8.498929  11.290862
O       1.147967  10.497868  11.281778
La      9.045650  10.866538  11.535735
O      10.308426   6.639265   9.666080
O       7.629969   6.944722   9.666080
Co      6.445656   5.433595   9.451652
Co      9.124112   8.150392   9.451652
O      10.618256   9.356062   9.237223
O       7.939799   9.661519   9.237223
O       6.484270   5.739052   7.544484
O       9.162727   7.844935   7.544484
La      6.484270   8.150392   7.544484
La      9.162727   0.000000   7.544484
O       7.677583   4.070817  13.170072
O       4.938569   4.113419  13.429558
Co      3.619162   2.670483  13.242665
Co      6.441765   5.485095  13.282141
O       7.734982   1.375883  13.128791
O       5.042634   1.394456  13.028866
La      6.380464   2.740673  11.515076
O       3.834551   3.073957  11.294335
O       6.353960   5.145224  11.294508
La      3.718294   5.442145  11.500207
O       4.951512   1.205670   9.666080
O       2.273055   1.511127   9.666080
Co      1.088742   0.000000   9.451652
Co      3.767199   2.716797   9.451652
O       5.261342   3.922467   9.237223
O       2.582885   4.227925   9.237223
O       1.127357   0.305457   7.544484
O       3.805814   2.411340   7.544484
La      1.127357   2.716797   7.544484
La      3.805814   5.433595   7.544484
O       7.740859   9.496872  13.313977
O       5.057905   9.567998  13.302481
Co      3.715741   8.165626  13.281807
Co      6.391454  10.852624  13.274645
O       7.773152   6.820880  12.982882
O       5.079201   6.825122  13.133251
La      6.377703   8.176201  11.535010
O       3.845481   8.455813  11.295736
O       6.517782  10.555402  11.291285
La      3.709014  10.825293  11.520396
O       4.951512   6.639265   9.666080
O       2.273055   6.944722   9.666080
Co      1.088742   5.433595   9.451652
Co      3.767199   8.150392   9.451652
O       5.261342   9.356062   9.237223
O       2.582885   9.661519   9.237223
O       1.127357   5.739052   7.544484
O       3.805814   7.844935   7.544484
La      1.127357   8.150392   7.544484
La      3.805814   0.000000   7.544484
H       4.873975   4.465634  14.847542
H       6.681202   4.405191  15.255329
H       5.825085   6.003238  15.470901
H       6.972991   5.420429  16.334301
C       6.374608   5.218116  15.611179
LAST_IMAGE
ATOMIC_POSITIONS {angstrom}
O       2.307666   3.948770  13.342626
O      10.343633   4.089115  13.358532
Co      9.039588   2.750167  13.271046
Co      1.012903   5.356885  13.263362
O       2.358032   1.263382  12.987892
O      10.408510   1.342145  13.002686
La      0.967932   2.704969  11.498546
O       9.157024   3.051385  11.283479
O       1.125097   5.073554  11.286277
La      9.019500   5.427842  11.534029
O      10.308426   1.205670   9.666080
O       7.629969   1.511127   9.666080
Co      6.445656   0.000000   9.451652
Co      9.124112   2.716797   9.451652
O      10.618256   3.922467   9.237223
O       7.939799   4.227925   9.237223
O       6.484270   0.305457   7.544484
O       9.162727   2.411340   7.544484
La      6.484270   2.716797   7.544484
La      9.162727   5.433595   7.544484
O       2.351490   9.412664  13.313617
O      10.397838   9.524197  13.372989
Co      9.070010   8.192678  13.284074
Co      1.015756  10.796591  13.236811
O       2.389244   6.703164  13.054234
O      10.418921   6.774627  13.067888
La      1.012014   8.107989  11.540197
O       9.183393   8.472667  11.293876
O       1.130035  10.476725  11.272677
La      9.036831  10.842241  11.534826
O      10.308426   6.639265   9.666080
O       7.629969   6.944722   9.666080
Co      6.445656   5.433595   9.451652
Co      9.124112   8.150392   9.451652
O      10.618256   9.356062   9.237223
O       7.939799   9.661519   9.237223
O       6.484270   5.739052   7.544484
O       9.162727   7.844935   7.544484
La      6.484270   8.150392   7.544484
La      9.162727   0.000000   7.544484
O       7.640087   4.047448  13.189558
O       4.877137   4.126244  13.704534
Co      3.598065   2.640188  13.242282
Co      6.444305   5.488487  13.406672
O       7.721546   1.353383  13.089327
O       5.040885   1.404427  13.018256
La      6.394234   2.738825  11.475291
O       3.890295   3.097836  11.309935
O       6.375835   5.140128  11.300382
La      3.721190   5.455096  11.487601
O       4.951512   1.205670   9.666080
O       2.273055   1.511127   9.666080
Co      1.088742   0.000000   9.451652
Co      3.767199   2.716797   9.451652
O       5.261342   3.922467   9.237223
O       2.582885   4.227925   9.237223
O       1.127357   0.305457   7.544484
O       3.805814   2.411340   7.544484
La      1.127357   2.716797   7.544484
La      3.805814   5.433595   7.544484
O       7.716340   9.480086  13.315429
O       5.037136   9.565048  13.308737
Co      3.703836   8.159346  13.300881
Co      6.378334  10.846496  13.254145
O       7.747528   6.794799  13.037681
O       5.061609   6.789257  13.150563
La      6.368816   8.138459  11.553284
O       3.839533   8.426863  11.300088
O       6.493693  10.521451  11.282409
La      3.711019  10.802444  11.501657
O       4.951512   6.639265   9.666080
O       2.273055   6.944722   9.666080
Co      1.088742   5.433595   9.451652
Co      3.767199   8.150392   9.451652
O       5.261342   9.356062   9.237223
O       2.582885   9.661519   9.237223
O       1.127357   5.739052   7.544484
O       3.805814   7.844935   7.544484
La      1.127357   8.150392   7.544484
La      3.805814   0.000000   7.544484
H       4.359935   4.640291  14.364407
H       6.227429   4.315582  15.410444
H       5.946861   6.090188  15.854671
H       7.653927   5.505701  15.444722
C       6.576002   5.361892  15.316298
END_POSITIONS

END_ENGINE_INPUT
END



