&CONTROL
    calculation   = "relax"
    forc_conv_thr =  0.01
    max_seconds   =  172800.0
    nstep         =  100
    pseudo_dir    = "C:\Users\User\.nanolabo\.pseudopot"
    restart_mode  = "from_scratch"
    verbosity     = "low"
/

&SYSTEM
    a                         =  11.3785765
    c                         =  21.476234
    constrained_magnetization = "none"
    degauss                   =  0.01
    ecutrho                   =  225.0
    ecutwfc                   =  25.0
    ibrav                     =  4
    nat                       =  88
    nspin                     =  2
    ntyp                      =  4
    occupations               = "smearing"
    smearing                  = "gaussian"
    starting_magnetization(1) =  0.2
/

&ELECTRONS
    conv_thr         =  1.0e-4
    diagonalization  = "david"
    electron_maxstep =  200
    mixing_beta      =  0.1
    startingpot      = "atomic"
    startingwfc      = "atomic+random"
/

&IONS
    ion_dynamics = "bfgs"
/

&CELL
/

K_POINTS {gamma}

ATOMIC_SPECIES
Co     58.93320  Co.pbe-nd-rrkjus.UPF
O      15.99940  O.pbe-rrkjus.UPF
H       1.00794  H.pbe-rrkjus.UPF
C      12.01070  C.pbe-rrkjus.UPF

ATOMIC_POSITIONS {angstrom}
Co      0.018301   3.290209  13.762684
O       2.836300   0.129786  13.225673
O       1.471517   2.440331  13.159410
O       4.158000   2.415717  13.222677
O      -2.840663   4.928127  13.165789
Co      1.407480   0.832272  12.242678
Co      4.264792   0.829153  12.244032
Co      2.833457   3.300581  12.241536
O       2.838933   1.647730  11.207259
O      -0.001560   1.475416  11.085518
O      -1.565184   4.197558  11.089683
O       1.575770   4.205086  11.083202
Co      0.000000   3.284712  10.447787  0 0 0
Co      0.000000   0.000000   9.867126  0 0 0
Co      2.844644   1.642356   9.286466  0 0 0
O       1.273746   0.735398   8.645149  0 0 0
O       4.415542   0.735398   8.645149  0 0 0
O       2.844644   3.456272   8.645149  0 0 0
O       0.000000   3.284712   8.523838  0 0 0
Co      0.000000   1.642356   7.544484  0 0 0
Co     -1.422322   4.105890   7.544484  0 0 0
Co     -2.844817   8.228296  13.527192
O      -0.003929   4.989700  13.172895
O      -1.330084   7.341720  13.218463
O       1.323820   7.342866  13.220187
O      -0.003428   0.013915  13.159987
Co     -1.423211   5.743285  12.250670
Co      1.418956   5.747609  12.247536
Co     -0.002200   8.225194  12.245131
O      -0.006735   6.577196  11.210723
O      -2.841674   6.403537  11.093502
O      -4.411724   9.120868  11.091405
O      -1.271458   9.130274  11.088523
Co     -2.844644   8.211780  10.447787  0 0 0
Co     -2.844644   4.927068   9.867126  0 0 0
Co      0.000000   6.569424   9.286466  0 0 0
O      -1.570898   5.662466   8.645149  0 0 0
O       1.570898   5.662466   8.645149  0 0 0
O       0.000000   8.383341   8.645149  0 0 0
O      -2.844644   8.211780   8.523838  0 0 0
Co     -2.844644   6.569424   7.544484  0 0 0
Co     -4.266966   9.032958   7.544484  0 0 0
Co      5.684258   3.283512  13.523873
O       8.533843   0.124207  13.224850
O       7.211507   2.416450  13.222630
O       9.918314   2.448544  13.170404
O       2.832405   4.927848  13.162494
Co      7.105621   0.827087  12.247566
Co      9.962480   0.836604  12.247794
Co      8.547426   3.296052  12.250245
O       8.529063   1.649250  11.211359
O       5.688884   1.480096  11.092330
O       4.124359   4.198409  11.092136
O       7.267410   4.199706  11.090384
Co      5.689288   3.284712  10.447787  0 0 0
Co      5.689288   0.000000   9.867126  0 0 0
Co      8.533932   1.642356   9.286466  0 0 0
O       6.963035   0.735398   8.645149  0 0 0
O      10.104830   0.735398   8.645149  0 0 0
O       8.533932   3.456272   8.645149  0 0 0
O       5.689288   3.284712   8.523838  0 0 0
Co      5.689288   1.642356   7.544484  0 0 0
Co      4.266966   4.105890   7.544484  0 0 0
Co      2.842479   8.222729  13.531120
O       5.688094   5.035681  13.209494
O       4.358740   7.342825  13.217938
O       7.021142   7.344657  13.211070
O       5.681321   0.009272  13.158820
Co      4.258742   5.750301  12.248055
Co      7.118725   5.749732  12.247012
Co      5.688650   8.224572  12.245614
O       5.685186   6.573499  11.212127
O       2.843909   6.406054  11.093836
O       1.279987   9.125422  11.094525
O       4.418905   9.127377  11.089814
Co      2.844644   8.211780  10.447787  0 0 0
Co      2.844644   4.927068   9.867126  0 0 0
Co      5.689288   6.569424   9.286466  0 0 0
O       4.118391   5.662466   8.645149  0 0 0
O       7.260186   5.662466   8.645149  0 0 0
O       5.689288   8.383341   8.645149  0 0 0
O       2.844644   8.211780   8.523838  0 0 0
Co      2.844644   6.569424   7.544484  0 0 0
Co      1.422322   9.032958   7.544484  0 0 0
H      -0.679144   2.933939  16.084953
H       1.095913   2.524341  15.858087
H       0.574098   4.271702  15.943825
C       0.292148   3.246411  15.683192


